(set-info :source |printed by MathSAT|)
(declare-fun _OK_ () Bool)
(declare-fun a () Bool)
(declare-fun call_bool6.out () Bool)
(declare-fun call_bool6.c () Bool)
(declare-fun call_bool6.b () Bool)
(declare-fun b () Bool)
(declare-fun call_int6I.time () Int)
(declare-fun call_bool6.flby () Bool)
(declare-fun call_bool6.flby3 () Bool)
(declare-fun call_int6I.out () Bool)
(declare-fun call_bool6.flby2 () Bool)
(declare-fun call_bool6.a () Bool)
(declare-fun call_int6I.flby () Int)
(define-fun .def_156 () Bool (not call_bool6.flby3))
(define-fun .def_154 () Bool (not call_bool6.flby2))
(define-fun .def_152 () Bool (not call_bool6.flby))
(define-fun .def_151 () Bool (= call_int6I.flby 0))
(define-fun .def_153 () Bool (and .def_151 .def_152))
(define-fun .def_155 () Bool (and .def_153 .def_154))
(define-fun .def_157 () Bool (and .def_155 .def_156))
(define-fun .def_149 () Bool (= call_bool6.c call_bool6.flby3))
(define-fun .def_146 () Bool (= call_bool6.b call_bool6.flby2))
(define-fun .def_142 () Bool (= call_bool6.a call_bool6.flby))
(define-fun .def_138 () Bool (and call_bool6.a call_bool6.c))
(define-fun .def_139 () Bool (= call_bool6.out .def_138))
(define-fun .def_134 () Bool (= call_int6I.time call_int6I.flby))
(define-fun .def_130 () Bool (= call_int6I.time 5))
(define-fun .def_131 () Bool (= call_int6I.out .def_130))
(define-fun .def_127 () Bool (= b call_bool6.out))
(define-fun .def_124 () Bool (= a call_int6I.out))
(define-fun .def_121 () Bool (= a b))
(define-fun .def_122 () Bool (= _OK_ .def_121))
(define-fun .def_125 () Bool (and .def_122 .def_124))
(define-fun .def_128 () Bool (and .def_125 .def_127))
(define-fun .def_132 () Bool (and .def_128 .def_131))
(define-fun .def_135 () Bool (and .def_132 .def_134))
(define-fun .def_140 () Bool (and .def_135 .def_139))
(define-fun .def_143 () Bool (and .def_140 .def_142))
(define-fun .def_147 () Bool (and .def_143 .def_146))
(define-fun .def_150 () Bool (and .def_147 .def_149))
(define-fun .def_158 () Bool (and .def_150 .def_157))
(assert .def_158)
